HUN,8,6,699
4,26,5,25,3,25,1,23,0,28,2,26
5,21,3,29,0,26,4,25,2,23,1,24
2,29,5,25,3,25,1,21,4,26,0,27
5,22,0,28,4,26,1,26,3,24,2,23
3,23,2,22,0,24,4,21,1,30,5,24
5,22,4,21,2,28,0,22,3,28,1,29
2,21,5,25,1,28,3,29,4,23,0,23
2,24,3,30,4,27,0,27,1,21,5,26
